benchmarks/ising_models/Random/J=1/50nodes_8deg_random_graph.wcnf
p wcnf 242 768
w -2 0.367879 0
w 2 2.718282 0
w -3 0.367879 0
w 3 2.718282 0
w -4 0.367879 0
w 4 2.718282 0
w -5 0.367879 0
w 5 2.718282 0
w -6 0.367879 0
w 6 2.718282 0
w -7 0.367879 0
w 7 2.718282 0
w -8 0.367879 0
w 8 2.718282 0
w -10 0.367879 0
w 10 2.718282 0
w -11 0.367879 0
w 11 2.718282 0
w -12 0.367879 0
w 12 2.718282 0
w -13 0.367879 0
w 13 2.718282 0
w -14 0.367879 0
w 14 2.718282 0
w -15 0.367879 0
w 15 2.718282 0
w -16 0.367879 0
w 16 2.718282 0
w -18 0.367879 0
w 18 2.718282 0
w -19 0.367879 0
w 19 2.718282 0
w -20 0.367879 0
w 20 2.718282 0
w -21 0.367879 0
w 21 2.718282 0
w -22 0.367879 0
w 22 2.718282 0
w -23 0.367879 0
w 23 2.718282 0
w -24 0.367879 0
w 24 2.718282 0
w -25 0.367879 0
w 25 2.718282 0
w -26 0.367879 0
w 26 2.718282 0
w -27 0.367879 0
w 27 2.718282 0
w -29 0.367879 0
w 29 2.718282 0
w -30 0.367879 0
w 30 2.718282 0
w -31 0.367879 0
w 31 2.718282 0
w -32 0.367879 0
w 32 2.718282 0
w -33 0.367879 0
w 33 2.718282 0
w -34 0.367879 0
w 34 2.718282 0
w -35 0.367879 0
w 35 2.718282 0
w -36 0.367879 0
w 36 2.718282 0
w -38 0.367879 0
w 38 2.718282 0
w -39 0.367879 0
w 39 2.718282 0
w -40 0.367879 0
w 40 2.718282 0
w -41 0.367879 0
w 41 2.718282 0
w -42 0.367879 0
w 42 2.718282 0
w -43 0.367879 0
w 43 2.718282 0
w -44 0.367879 0
w 44 2.718282 0
w -46 0.367879 0
w 46 2.718282 0
w -47 0.367879 0
w 47 2.718282 0
w -48 0.367879 0
w 48 2.718282 0
w -49 0.367879 0
w 49 2.718282 0
w -50 0.367879 0
w 50 2.718282 0
w -51 0.367879 0
w 51 2.718282 0
w -52 0.367879 0
w 52 2.718282 0
w -53 0.367879 0
w 53 2.718282 0
w -55 0.367879 0
w 55 2.718282 0
w -56 0.367879 0
w 56 2.718282 0
w -57 0.367879 0
w 57 2.718282 0
w -58 0.367879 0
w 58 2.718282 0
w -60 0.367879 0
w 60 2.718282 0
w -61 0.367879 0
w 61 2.718282 0
w -62 0.367879 0
w 62 2.718282 0
w -63 0.367879 0
w 63 2.718282 0
w -64 0.367879 0
w 64 2.718282 0
w -65 0.367879 0
w 65 2.718282 0
w -66 0.367879 0
w 66 2.718282 0
w -67 0.367879 0
w 67 2.718282 0
w -69 0.367879 0
w 69 2.718282 0
w -70 0.367879 0
w 70 2.718282 0
w -71 0.367879 0
w 71 2.718282 0
w -72 0.367879 0
w 72 2.718282 0
w -73 0.367879 0
w 73 2.718282 0
w -74 0.367879 0
w 74 2.718282 0
w -75 0.367879 0
w 75 2.718282 0
w -76 0.367879 0
w 76 2.718282 0
w -77 0.367879 0
w 77 2.718282 0
w -78 0.367879 0
w 78 2.718282 0
w -80 0.367879 0
w 80 2.718282 0
w -81 0.367879 0
w 81 2.718282 0
w -82 0.367879 0
w 82 2.718282 0
w -83 0.367879 0
w 83 2.718282 0
w -84 0.367879 0
w 84 2.718282 0
w -85 0.367879 0
w 85 2.718282 0
w -86 0.367879 0
w 86 2.718282 0
w -88 0.367879 0
w 88 2.718282 0
w -89 0.367879 0
w 89 2.718282 0
w -90 0.367879 0
w 90 2.718282 0
w -91 0.367879 0
w 91 2.718282 0
w -93 0.367879 0
w 93 2.718282 0
w -94 0.367879 0
w 94 2.718282 0
w -95 0.367879 0
w 95 2.718282 0
w -96 0.367879 0
w 96 2.718282 0
w -97 0.367879 0
w 97 2.718282 0
w -99 0.367879 0
w 99 2.718282 0
w -100 0.367879 0
w 100 2.718282 0
w -101 0.367879 0
w 101 2.718282 0
w -102 0.367879 0
w 102 2.718282 0
w -104 0.367879 0
w 104 2.718282 0
w -105 0.367879 0
w 105 2.718282 0
w -106 0.367879 0
w 106 2.718282 0
w -108 0.367879 0
w 108 2.718282 0
w -109 0.367879 0
w 109 2.718282 0
w -110 0.367879 0
w 110 2.718282 0
w -111 0.367879 0
w 111 2.718282 0
w -112 0.367879 0
w 112 2.718282 0
w -113 0.367879 0
w 113 2.718282 0
w -114 0.367879 0
w 114 2.718282 0
w -115 0.367879 0
w 115 2.718282 0
w -116 0.367879 0
w 116 2.718282 0
w -117 0.367879 0
w 117 2.718282 0
w -119 0.367879 0
w 119 2.718282 0
w -120 0.367879 0
w 120 2.718282 0
w -121 0.367879 0
w 121 2.718282 0
w -122 0.367879 0
w 122 2.718282 0
w -123 0.367879 0
w 123 2.718282 0
w -125 0.367879 0
w 125 2.718282 0
w -126 0.367879 0
w 126 2.718282 0
w -127 0.367879 0
w 127 2.718282 0
w -128 0.367879 0
w 128 2.718282 0
w -129 0.367879 0
w 129 2.718282 0
w -130 0.367879 0
w 130 2.718282 0
w -132 0.367879 0
w 132 2.718282 0
w -133 0.367879 0
w 133 2.718282 0
w -134 0.367879 0
w 134 2.718282 0
w -135 0.367879 0
w 135 2.718282 0
w -136 0.367879 0
w 136 2.718282 0
w -137 0.367879 0
w 137 2.718282 0
w -139 0.367879 0
w 139 2.718282 0
w -140 0.367879 0
w 140 2.718282 0
w -141 0.367879 0
w 141 2.718282 0
w -142 0.367879 0
w 142 2.718282 0
w -144 0.367879 0
w 144 2.718282 0
w -145 0.367879 0
w 145 2.718282 0
w -146 0.367879 0
w 146 2.718282 0
w -147 0.367879 0
w 147 2.718282 0
w -149 0.367879 0
w 149 2.718282 0
w -150 0.367879 0
w 150 2.718282 0
w -151 0.367879 0
w 151 2.718282 0
w -152 0.367879 0
w 152 2.718282 0
w -153 0.367879 0
w 153 2.718282 0
w -155 0.367879 0
w 155 2.718282 0
w -156 0.367879 0
w 156 2.718282 0
w -157 0.367879 0
w 157 2.718282 0
w -159 0.367879 0
w 159 2.718282 0
w -160 0.367879 0
w 160 2.718282 0
w -161 0.367879 0
w 161 2.718282 0
w -162 0.367879 0
w 162 2.718282 0
w -163 0.367879 0
w 163 2.718282 0
w -165 0.367879 0
w 165 2.718282 0
w -166 0.367879 0
w 166 2.718282 0
w -167 0.367879 0
w 167 2.718282 0
w -169 0.367879 0
w 169 2.718282 0
w -170 0.367879 0
w 170 2.718282 0
w -171 0.367879 0
w 171 2.718282 0
w -173 0.367879 0
w 173 2.718282 0
w -174 0.367879 0
w 174 2.718282 0
w -175 0.367879 0
w 175 2.718282 0
w -176 0.367879 0
w 176 2.718282 0
w -178 0.367879 0
w 178 2.718282 0
w -179 0.367879 0
w 179 2.718282 0
w -180 0.367879 0
w 180 2.718282 0
w -181 0.367879 0
w 181 2.718282 0
w -182 0.367879 0
w 182 2.718282 0
w -183 0.367879 0
w 183 2.718282 0
w -184 0.367879 0
w 184 2.718282 0
w -186 0.367879 0
w 186 2.718282 0
w -188 0.367879 0
w 188 2.718282 0
w -189 0.367879 0
w 189 2.718282 0
w -190 0.367879 0
w 190 2.718282 0
w -192 0.367879 0
w 192 2.718282 0
w -193 0.367879 0
w 193 2.718282 0
w -195 0.367879 0
w 195 2.718282 0
w -196 0.367879 0
w 196 2.718282 0
w -197 0.367879 0
w 197 2.718282 0
w -199 0.367879 0
w 199 2.718282 0
w -200 0.367879 0
w 200 2.718282 0
w -201 0.367879 0
w 201 2.718282 0
w -202 0.367879 0
w 202 2.718282 0
w -203 0.367879 0
w 203 2.718282 0
w -205 0.367879 0
w 205 2.718282 0
w -206 0.367879 0
w 206 2.718282 0
w -207 0.367879 0
w 207 2.718282 0
w -210 0.367879 0
w 210 2.718282 0
w -211 0.367879 0
w 211 2.718282 0
w -212 0.367879 0
w 212 2.718282 0
w -215 0.367879 0
w 215 2.718282 0
w -216 0.367879 0
w 216 2.718282 0
w -218 0.367879 0
w 218 2.718282 0
w -219 0.367879 0
w 219 2.718282 0
w -222 0.367879 0
w 222 2.718282 0
w -225 0.367879 0
w 225 2.718282 0
w -227 0.367879 0
w 227 2.718282 0
w -228 0.367879 0
w 228 2.718282 0
w -230 0.367879 0
w 230 2.718282 0
w -232 0.367879 0
w 232 2.718282 0
w -233 0.367879 0
w 233 2.718282 0
w -235 0.367879 0
w 235 2.718282 0
w -236 0.367879 0
w 236 2.718282 0
w -238 0.367879 0
w 238 2.718282 0
w -240 0.367879 0
w 240 2.718282 0
2 1 9 0
2 -1 -9 0
-2 1 -9 0
-2 -1 9 0
3 1 59 0
3 -1 -59 0
-3 1 -59 0
-3 -1 59 0
4 1 87 0
4 -1 -87 0
-4 1 -87 0
-4 -1 87 0
5 1 143 0
5 -1 -143 0
-5 1 -143 0
-5 -1 143 0
6 1 148 0
6 -1 -148 0
-6 1 -148 0
-6 -1 148 0
7 1 164 0
7 -1 -164 0
-7 1 -164 0
-7 -1 164 0
8 1 204 0
8 -1 -204 0
-8 1 -204 0
-8 -1 204 0
10 9 45 0
10 -9 -45 0
-10 9 -45 0
-10 -9 45 0
11 9 118 0
11 -9 -118 0
-11 9 -118 0
-11 -9 118 0
12 9 148 0
12 -9 -148 0
-12 9 -148 0
-12 -9 148 0
13 9 220 0
13 -9 -220 0
-13 9 -220 0
-13 -9 220 0
14 9 221 0
14 -9 -221 0
-14 9 -221 0
-14 -9 221 0
15 9 229 0
15 -9 -229 0
-15 9 -229 0
-15 -9 229 0
16 9 234 0
16 -9 -234 0
-16 9 -234 0
-16 -9 234 0
18 17 28 0
18 -17 -28 0
-18 17 -28 0
-18 -17 28 0
19 17 37 0
19 -17 -37 0
-19 17 -37 0
-19 -17 37 0
20 17 87 0
20 -17 -87 0
-20 17 -87 0
-20 -17 87 0
21 17 92 0
21 -17 -92 0
-21 17 -92 0
-21 -17 92 0
22 17 143 0
22 -17 -143 0
-22 17 -143 0
-22 -17 143 0
23 17 164 0
23 -17 -164 0
-23 17 -164 0
-23 -17 164 0
24 17 168 0
24 -17 -168 0
-24 17 -168 0
-24 -17 168 0
25 17 187 0
25 -17 -187 0
-25 17 -187 0
-25 -17 187 0
26 17 237 0
26 -17 -237 0
-26 17 -237 0
-26 -17 237 0
27 17 241 0
27 -17 -241 0
-27 17 -241 0
-27 -17 241 0
29 28 68 0
29 -28 -68 0
-29 28 -68 0
-29 -28 68 0
30 28 79 0
30 -28 -79 0
-30 28 -79 0
-30 -28 79 0
31 28 124 0
31 -28 -124 0
-31 28 -124 0
-31 -28 124 0
32 28 143 0
32 -28 -143 0
-32 28 -143 0
-32 -28 143 0
33 28 204 0
33 -28 -204 0
-33 28 -204 0
-33 -28 204 0
34 28 208 0
34 -28 -208 0
-34 28 -208 0
-34 -28 208 0
35 28 220 0
35 -28 -220 0
-35 28 -220 0
-35 -28 220 0
36 28 231 0
36 -28 -231 0
-36 28 -231 0
-36 -28 231 0
38 37 45 0
38 -37 -45 0
-38 37 -45 0
-38 -37 45 0
39 37 79 0
39 -37 -79 0
-39 37 -79 0
-39 -37 79 0
40 37 148 0
40 -37 -148 0
-40 37 -148 0
-40 -37 148 0
41 37 158 0
41 -37 -158 0
-41 37 -158 0
-41 -37 158 0
42 37 204 0
42 -37 -204 0
-42 37 -204 0
-42 -37 204 0
43 37 208 0
43 -37 -208 0
-43 37 -208 0
-43 -37 208 0
44 37 224 0
44 -37 -224 0
-44 37 -224 0
-44 -37 224 0
46 45 107 0
46 -45 -107 0
-46 45 -107 0
-46 -45 107 0
47 45 148 0
47 -45 -148 0
-47 45 -148 0
-47 -45 148 0
48 45 164 0
48 -45 -164 0
-48 45 -164 0
-48 -45 164 0
49 45 185 0
49 -45 -185 0
-49 45 -185 0
-49 -45 185 0
50 45 223 0
50 -45 -223 0
-50 45 -223 0
-50 -45 223 0
51 45 239 0
51 -45 -239 0
-51 45 -239 0
-51 -45 239 0
52 45 241 0
52 -45 -241 0
-52 45 -241 0
-52 -45 241 0
53 45 242 0
53 -45 -242 0
-53 45 -242 0
-53 -45 242 0
55 54 124 0
55 -54 -124 0
-55 54 -124 0
-55 -54 124 0
56 54 185 0
56 -54 -185 0
-56 54 -185 0
-56 -54 185 0
57 54 209 0
57 -54 -209 0
-57 54 -209 0
-57 -54 209 0
58 54 226 0
58 -54 -226 0
-58 54 -226 0
-58 -54 226 0
60 59 124 0
60 -59 -124 0
-60 59 -124 0
-60 -59 124 0
61 59 158 0
61 -59 -158 0
-61 59 -158 0
-61 -59 158 0
62 59 164 0
62 -59 -164 0
-62 59 -164 0
-62 -59 164 0
63 59 191 0
63 -59 -191 0
-63 59 -191 0
-63 -59 191 0
64 59 226 0
64 -59 -226 0
-64 59 -226 0
-64 -59 226 0
65 59 231 0
65 -59 -231 0
-65 59 -231 0
-65 -59 231 0
66 59 237 0
66 -59 -237 0
-66 59 -237 0
-66 -59 237 0
67 59 241 0
67 -59 -241 0
-67 59 -241 0
-67 -59 241 0
69 68 79 0
69 -68 -79 0
-69 68 -79 0
-69 -68 79 0
70 68 92 0
70 -68 -92 0
-70 68 -92 0
-70 -68 92 0
71 68 98 0
71 -68 -98 0
-71 68 -98 0
-71 -68 98 0
72 68 143 0
72 -68 -143 0
-72 68 -143 0
-72 -68 143 0
73 68 164 0
73 -68 -164 0
-73 68 -164 0
-73 -68 164 0
74 68 177 0
74 -68 -177 0
-74 68 -177 0
-74 -68 177 0
75 68 198 0
75 -68 -198 0
-75 68 -198 0
-75 -68 198 0
76 68 214 0
76 -68 -214 0
-76 68 -214 0
-76 -68 214 0
77 68 237 0
77 -68 -237 0
-77 68 -237 0
-77 -68 237 0
78 68 239 0
78 -68 -239 0
-78 68 -239 0
-78 -68 239 0
80 79 131 0
80 -79 -131 0
-80 79 -131 0
-80 -79 131 0
81 79 198 0
81 -79 -198 0
-81 79 -198 0
-81 -79 198 0
82 79 217 0
82 -79 -217 0
-82 79 -217 0
-82 -79 217 0
83 79 220 0
83 -79 -220 0
-83 79 -220 0
-83 -79 220 0
84 79 224 0
84 -79 -224 0
-84 79 -224 0
-84 -79 224 0
85 79 229 0
85 -79 -229 0
-85 79 -229 0
-85 -79 229 0
86 79 239 0
86 -79 -239 0
-86 79 -239 0
-86 -79 239 0
88 87 124 0
88 -87 -124 0
-88 87 -124 0
-88 -87 124 0
89 87 131 0
89 -87 -131 0
-89 87 -131 0
-89 -87 131 0
90 87 164 0
90 -87 -164 0
-90 87 -164 0
-90 -87 164 0
91 87 221 0
91 -87 -221 0
-91 87 -221 0
-91 -87 221 0
93 92 98 0
93 -92 -98 0
-93 92 -98 0
-93 -92 98 0
94 92 143 0
94 -92 -143 0
-94 92 -143 0
-94 -92 143 0
95 92 158 0
95 -92 -158 0
-95 92 -158 0
-95 -92 158 0
96 92 187 0
96 -92 -187 0
-96 92 -187 0
-96 -92 187 0
97 92 224 0
97 -92 -224 0
-97 92 -224 0
-97 -92 224 0
99 98 164 0
99 -98 -164 0
-99 98 -164 0
-99 -98 164 0
100 98 217 0
100 -98 -217 0
-100 98 -217 0
-100 -98 217 0
101 98 237 0
101 -98 -237 0
-101 98 -237 0
-101 -98 237 0
102 98 239 0
102 -98 -239 0
-102 98 -239 0
-102 -98 239 0
104 103 185 0
104 -103 -185 0
-104 103 -185 0
-104 -103 185 0
105 103 214 0
105 -103 -214 0
-105 103 -214 0
-105 -103 214 0
106 103 217 0
106 -103 -217 0
-106 103 -217 0
-106 -103 217 0
108 107 131 0
108 -107 -131 0
-108 107 -131 0
-108 -107 131 0
109 107 138 0
109 -107 -138 0
-109 107 -138 0
-109 -107 138 0
110 107 143 0
110 -107 -143 0
-110 107 -143 0
-110 -107 143 0
111 107 148 0
111 -107 -148 0
-111 107 -148 0
-111 -107 148 0
112 107 164 0
112 -107 -164 0
-112 107 -164 0
-112 -107 164 0
113 107 177 0
113 -107 -177 0
-113 107 -177 0
-113 -107 177 0
114 107 185 0
114 -107 -185 0
-114 107 -185 0
-114 -107 185 0
115 107 204 0
115 -107 -204 0
-115 107 -204 0
-115 -107 204 0
116 107 221 0
116 -107 -221 0
-116 107 -221 0
-116 -107 221 0
117 107 239 0
117 -107 -239 0
-117 107 -239 0
-117 -107 239 0
119 118 204 0
119 -118 -204 0
-119 118 -204 0
-119 -118 204 0
120 118 213 0
120 -118 -213 0
-120 118 -213 0
-120 -118 213 0
121 118 234 0
121 -118 -234 0
-121 118 -234 0
-121 -118 234 0
122 118 239 0
122 -118 -239 0
-122 118 -239 0
-122 -118 239 0
123 118 241 0
123 -118 -241 0
-123 118 -241 0
-123 -118 241 0
125 124 131 0
125 -124 -131 0
-125 124 -131 0
-125 -124 131 0
126 124 158 0
126 -124 -158 0
-126 124 -158 0
-126 -124 158 0
127 124 185 0
127 -124 -185 0
-127 124 -185 0
-127 -124 185 0
128 124 217 0
128 -124 -217 0
-128 124 -217 0
-128 -124 217 0
129 124 224 0
129 -124 -224 0
-129 124 -224 0
-129 -124 224 0
130 124 239 0
130 -124 -239 0
-130 124 -239 0
-130 -124 239 0
132 131 154 0
132 -131 -154 0
-132 131 -154 0
-132 -131 154 0
133 131 177 0
133 -131 -177 0
-133 131 -177 0
-133 -131 177 0
134 131 221 0
134 -131 -221 0
-134 131 -221 0
-134 -131 221 0
135 131 226 0
135 -131 -226 0
-135 131 -226 0
-135 -131 226 0
136 131 239 0
136 -131 -239 0
-136 131 -239 0
-136 -131 239 0
137 131 242 0
137 -131 -242 0
-137 131 -242 0
-137 -131 242 0
139 138 214 0
139 -138 -214 0
-139 138 -214 0
-139 -138 214 0
140 138 217 0
140 -138 -217 0
-140 138 -217 0
-140 -138 217 0
141 138 234 0
141 -138 -234 0
-141 138 -234 0
-141 -138 234 0
142 138 241 0
142 -138 -241 0
-142 138 -241 0
-142 -138 241 0
144 143 194 0
144 -143 -194 0
-144 143 -194 0
-144 -143 194 0
145 143 198 0
145 -143 -198 0
-145 143 -198 0
-145 -143 198 0
146 143 214 0
146 -143 -214 0
-146 143 -214 0
-146 -143 214 0
147 143 239 0
147 -143 -239 0
-147 143 -239 0
-147 -143 239 0
149 148 191 0
149 -148 -191 0
-149 148 -191 0
-149 -148 191 0
150 148 229 0
150 -148 -229 0
-150 148 -229 0
-150 -148 229 0
151 148 234 0
151 -148 -234 0
-151 148 -234 0
-151 -148 234 0
152 148 237 0
152 -148 -237 0
-152 148 -237 0
-152 -148 237 0
153 148 239 0
153 -148 -239 0
-153 148 -239 0
-153 -148 239 0
155 154 177 0
155 -154 -177 0
-155 154 -177 0
-155 -154 177 0
156 154 213 0
156 -154 -213 0
-156 154 -213 0
-156 -154 213 0
157 154 217 0
157 -154 -217 0
-157 154 -217 0
-157 -154 217 0
159 158 198 0
159 -158 -198 0
-159 158 -198 0
-159 -158 198 0
160 158 204 0
160 -158 -204 0
-160 158 -204 0
-160 -158 204 0
161 158 208 0
161 -158 -208 0
-161 158 -208 0
-161 -158 208 0
162 158 209 0
162 -158 -209 0
-162 158 -209 0
-162 -158 209 0
163 158 213 0
163 -158 -213 0
-163 158 -213 0
-163 -158 213 0
165 164 213 0
165 -164 -213 0
-165 164 -213 0
-165 -164 213 0
166 164 234 0
166 -164 -234 0
-166 164 -234 0
-166 -164 234 0
167 164 241 0
167 -164 -241 0
-167 164 -241 0
-167 -164 241 0
169 168 208 0
169 -168 -208 0
-169 168 -208 0
-169 -168 208 0
170 168 221 0
170 -168 -221 0
-170 168 -221 0
-170 -168 221 0
171 168 241 0
171 -168 -241 0
-171 168 -241 0
-171 -168 241 0
173 172 198 0
173 -172 -198 0
-173 172 -198 0
-173 -172 198 0
174 172 209 0
174 -172 -209 0
-174 172 -209 0
-174 -172 209 0
175 172 239 0
175 -172 -239 0
-175 172 -239 0
-175 -172 239 0
176 172 241 0
176 -172 -241 0
-176 172 -241 0
-176 -172 241 0
178 177 185 0
178 -177 -185 0
-178 177 -185 0
-178 -177 185 0
179 177 204 0
179 -177 -204 0
-179 177 -204 0
-179 -177 204 0
180 177 214 0
180 -177 -214 0
-180 177 -214 0
-180 -177 214 0
181 177 220 0
181 -177 -220 0
-181 177 -220 0
-181 -177 220 0
182 177 223 0
182 -177 -223 0
-182 177 -223 0
-182 -177 223 0
183 177 229 0
183 -177 -229 0
-183 177 -229 0
-183 -177 229 0
184 177 234 0
184 -177 -234 0
-184 177 -234 0
-184 -177 234 0
186 185 213 0
186 -185 -213 0
-186 185 -213 0
-186 -185 213 0
188 187 198 0
188 -187 -198 0
-188 187 -198 0
-188 -187 198 0
189 187 213 0
189 -187 -213 0
-189 187 -213 0
-189 -187 213 0
190 187 231 0
190 -187 -231 0
-190 187 -231 0
-190 -187 231 0
192 191 223 0
192 -191 -223 0
-192 191 -223 0
-192 -191 223 0
193 191 224 0
193 -191 -224 0
-193 191 -224 0
-193 -191 224 0
195 194 213 0
195 -194 -213 0
-195 194 -213 0
-195 -194 213 0
196 194 226 0
196 -194 -226 0
-196 194 -226 0
-196 -194 226 0
197 194 241 0
197 -194 -241 0
-197 194 -241 0
-197 -194 241 0
199 198 204 0
199 -198 -204 0
-199 198 -204 0
-199 -198 204 0
200 198 214 0
200 -198 -214 0
-200 198 -214 0
-200 -198 214 0
201 198 217 0
201 -198 -217 0
-201 198 -217 0
-201 -198 217 0
202 198 234 0
202 -198 -234 0
-202 198 -234 0
-202 -198 234 0
203 198 239 0
203 -198 -239 0
-203 198 -239 0
-203 -198 239 0
205 204 209 0
205 -204 -209 0
-205 204 -209 0
-205 -204 209 0
206 204 213 0
206 -204 -213 0
-206 204 -213 0
-206 -204 213 0
207 204 229 0
207 -204 -229 0
-207 204 -229 0
-207 -204 229 0
210 209 220 0
210 -209 -220 0
-210 209 -220 0
-210 -209 220 0
211 209 221 0
211 -209 -221 0
-211 209 -221 0
-211 -209 221 0
212 209 229 0
212 -209 -229 0
-212 209 -229 0
-212 -209 229 0
215 214 223 0
215 -214 -223 0
-215 214 -223 0
-215 -214 223 0
216 214 229 0
216 -214 -229 0
-216 214 -229 0
-216 -214 229 0
218 217 229 0
218 -217 -229 0
-218 217 -229 0
-218 -217 229 0
219 217 231 0
219 -217 -231 0
-219 217 -231 0
-219 -217 231 0
222 221 237 0
222 -221 -237 0
-222 221 -237 0
-222 -221 237 0
225 224 231 0
225 -224 -231 0
-225 224 -231 0
-225 -224 231 0
227 226 237 0
227 -226 -237 0
-227 226 -237 0
-227 -226 237 0
228 226 241 0
228 -226 -241 0
-228 226 -241 0
-228 -226 241 0
230 229 231 0
230 -229 -231 0
-230 229 -231 0
-230 -229 231 0
232 231 234 0
232 -231 -234 0
-232 231 -234 0
-232 -231 234 0
233 231 239 0
233 -231 -239 0
-233 231 -239 0
-233 -231 239 0
235 234 239 0
235 -234 -239 0
-235 234 -239 0
-235 -234 239 0
236 234 241 0
236 -234 -241 0
-236 234 -241 0
-236 -234 241 0
238 237 241 0
238 -237 -241 0
-238 237 -241 0
-238 -237 241 0
240 239 241 0
240 -239 -241 0
-240 239 -241 0
-240 -239 241 0
