benchmarks/ising_models/Random/J=1/50nodes_8deg_random_graph
ISING
50
2 2 2 2 2 2 2 2 2 2 2 2 2 2 2 2 2 2 2 2 2 2 2 2 2 2 2 2 2 2 2 2 2 2 2 2 2 2 2 2 2 2 2 2 2 2 2 2 2 2
0 192 1 1
2 0 1
2 0 7
2 0 10
2 0 19
2 0 20
2 0 23
2 0 32
2 1 5
2 1 15
2 1 20
2 1 38
2 1 39
2 1 43
2 1 45
2 2 3
2 2 4
2 2 10
2 2 11
2 2 19
2 2 23
2 2 24
2 2 28
2 2 46
2 2 48
2 3 8
2 3 9
2 3 16
2 3 19
2 3 32
2 3 33
2 3 38
2 3 44
2 4 5
2 4 9
2 4 20
2 4 22
2 4 32
2 4 33
2 4 41
2 5 14
2 5 20
2 5 23
2 5 27
2 5 40
2 5 47
2 5 48
2 5 49
2 6 16
2 6 27
2 6 34
2 6 42
2 7 16
2 7 22
2 7 23
2 7 29
2 7 42
2 7 44
2 7 46
2 7 48
2 8 9
2 8 11
2 8 12
2 8 19
2 8 23
2 8 26
2 8 31
2 8 36
2 8 46
2 8 47
2 9 17
2 9 31
2 9 37
2 9 38
2 9 41
2 9 43
2 9 47
2 10 16
2 10 17
2 10 23
2 10 39
2 11 12
2 11 19
2 11 22
2 11 28
2 11 41
2 12 23
2 12 37
2 12 46
2 12 47
2 13 27
2 13 36
2 13 37
2 14 17
2 14 18
2 14 19
2 14 20
2 14 23
2 14 26
2 14 27
2 14 32
2 14 39
2 14 47
2 15 32
2 15 35
2 15 45
2 15 47
2 15 48
2 16 17
2 16 22
2 16 27
2 16 37
2 16 41
2 16 47
2 17 21
2 17 26
2 17 39
2 17 42
2 17 47
2 17 49
2 18 36
2 18 37
2 18 45
2 18 48
2 19 30
2 19 31
2 19 36
2 19 47
2 20 29
2 20 43
2 20 45
2 20 46
2 20 47
2 21 26
2 21 35
2 21 37
2 22 31
2 22 32
2 22 33
2 22 34
2 22 35
2 23 35
2 23 45
2 23 48
2 24 33
2 24 39
2 24 48
2 25 31
2 25 34
2 25 47
2 25 48
2 26 27
2 26 32
2 26 36
2 26 38
2 26 40
2 26 43
2 26 45
2 27 35
2 28 31
2 28 35
2 28 44
2 29 40
2 29 41
2 30 35
2 30 42
2 30 48
2 31 32
2 31 36
2 31 37
2 31 45
2 31 47
2 32 34
2 32 35
2 32 43
2 34 38
2 34 39
2 34 43
2 36 40
2 36 43
2 37 43
2 37 44
2 39 46
2 41 44
2 42 46
2 42 48
2 43 44
2 44 45
2 44 47
2 45 47
2 45 48
2 46 48
2 47 48

4
 1.0 -1.0
 -1.0 1.0
4
 1.0 -1.0
 -1.0 1.0
4
 1.0 -1.0
 -1.0 1.0
4
 1.0 -1.0
 -1.0 1.0
4
 1.0 -1.0
 -1.0 1.0
4
 1.0 -1.0
 -1.0 1.0
4
 1.0 -1.0
 -1.0 1.0
4
 1.0 -1.0
 -1.0 1.0
4
 1.0 -1.0
 -1.0 1.0
4
 1.0 -1.0
 -1.0 1.0
4
 1.0 -1.0
 -1.0 1.0
4
 1.0 -1.0
 -1.0 1.0
4
 1.0 -1.0
 -1.0 1.0
4
 1.0 -1.0
 -1.0 1.0
4
 1.0 -1.0
 -1.0 1.0
4
 1.0 -1.0
 -1.0 1.0
4
 1.0 -1.0
 -1.0 1.0
4
 1.0 -1.0
 -1.0 1.0
4
 1.0 -1.0
 -1.0 1.0
4
 1.0 -1.0
 -1.0 1.0
4
 1.0 -1.0
 -1.0 1.0
4
 1.0 -1.0
 -1.0 1.0
4
 1.0 -1.0
 -1.0 1.0
4
 1.0 -1.0
 -1.0 1.0
4
 1.0 -1.0
 -1.0 1.0
4
 1.0 -1.0
 -1.0 1.0
4
 1.0 -1.0
 -1.0 1.0
4
 1.0 -1.0
 -1.0 1.0
4
 1.0 -1.0
 -1.0 1.0
4
 1.0 -1.0
 -1.0 1.0
4
 1.0 -1.0
 -1.0 1.0
4
 1.0 -1.0
 -1.0 1.0
4
 1.0 -1.0
 -1.0 1.0
4
 1.0 -1.0
 -1.0 1.0
4
 1.0 -1.0
 -1.0 1.0
4
 1.0 -1.0
 -1.0 1.0
4
 1.0 -1.0
 -1.0 1.0
4
 1.0 -1.0
 -1.0 1.0
4
 1.0 -1.0
 -1.0 1.0
4
 1.0 -1.0
 -1.0 1.0
4
 1.0 -1.0
 -1.0 1.0
4
 1.0 -1.0
 -1.0 1.0
4
 1.0 -1.0
 -1.0 1.0
4
 1.0 -1.0
 -1.0 1.0
4
 1.0 -1.0
 -1.0 1.0
4
 1.0 -1.0
 -1.0 1.0
4
 1.0 -1.0
 -1.0 1.0
4
 1.0 -1.0
 -1.0 1.0
4
 1.0 -1.0
 -1.0 1.0
4
 1.0 -1.0
 -1.0 1.0
4
 1.0 -1.0
 -1.0 1.0
4
 1.0 -1.0
 -1.0 1.0
4
 1.0 -1.0
 -1.0 1.0
4
 1.0 -1.0
 -1.0 1.0
4
 1.0 -1.0
 -1.0 1.0
4
 1.0 -1.0
 -1.0 1.0
4
 1.0 -1.0
 -1.0 1.0
4
 1.0 -1.0
 -1.0 1.0
4
 1.0 -1.0
 -1.0 1.0
4
 1.0 -1.0
 -1.0 1.0
4
 1.0 -1.0
 -1.0 1.0
4
 1.0 -1.0
 -1.0 1.0
4
 1.0 -1.0
 -1.0 1.0
4
 1.0 -1.0
 -1.0 1.0
4
 1.0 -1.0
 -1.0 1.0
4
 1.0 -1.0
 -1.0 1.0
4
 1.0 -1.0
 -1.0 1.0
4
 1.0 -1.0
 -1.0 1.0
4
 1.0 -1.0
 -1.0 1.0
4
 1.0 -1.0
 -1.0 1.0
4
 1.0 -1.0
 -1.0 1.0
4
 1.0 -1.0
 -1.0 1.0
4
 1.0 -1.0
 -1.0 1.0
4
 1.0 -1.0
 -1.0 1.0
4
 1.0 -1.0
 -1.0 1.0
4
 1.0 -1.0
 -1.0 1.0
4
 1.0 -1.0
 -1.0 1.0
4
 1.0 -1.0
 -1.0 1.0
4
 1.0 -1.0
 -1.0 1.0
4
 1.0 -1.0
 -1.0 1.0
4
 1.0 -1.0
 -1.0 1.0
4
 1.0 -1.0
 -1.0 1.0
4
 1.0 -1.0
 -1.0 1.0
4
 1.0 -1.0
 -1.0 1.0
4
 1.0 -1.0
 -1.0 1.0
4
 1.0 -1.0
 -1.0 1.0
4
 1.0 -1.0
 -1.0 1.0
4
 1.0 -1.0
 -1.0 1.0
4
 1.0 -1.0
 -1.0 1.0
4
 1.0 -1.0
 -1.0 1.0
4
 1.0 -1.0
 -1.0 1.0
4
 1.0 -1.0
 -1.0 1.0
4
 1.0 -1.0
 -1.0 1.0
4
 1.0 -1.0
 -1.0 1.0
4
 1.0 -1.0
 -1.0 1.0
4
 1.0 -1.0
 -1.0 1.0
4
 1.0 -1.0
 -1.0 1.0
4
 1.0 -1.0
 -1.0 1.0
4
 1.0 -1.0
 -1.0 1.0
4
 1.0 -1.0
 -1.0 1.0
4
 1.0 -1.0
 -1.0 1.0
4
 1.0 -1.0
 -1.0 1.0
4
 1.0 -1.0
 -1.0 1.0
4
 1.0 -1.0
 -1.0 1.0
4
 1.0 -1.0
 -1.0 1.0
4
 1.0 -1.0
 -1.0 1.0
4
 1.0 -1.0
 -1.0 1.0
4
 1.0 -1.0
 -1.0 1.0
4
 1.0 -1.0
 -1.0 1.0
4
 1.0 -1.0
 -1.0 1.0
4
 1.0 -1.0
 -1.0 1.0
4
 1.0 -1.0
 -1.0 1.0
4
 1.0 -1.0
 -1.0 1.0
4
 1.0 -1.0
 -1.0 1.0
4
 1.0 -1.0
 -1.0 1.0
4
 1.0 -1.0
 -1.0 1.0
4
 1.0 -1.0
 -1.0 1.0
4
 1.0 -1.0
 -1.0 1.0
4
 1.0 -1.0
 -1.0 1.0
4
 1.0 -1.0
 -1.0 1.0
4
 1.0 -1.0
 -1.0 1.0
4
 1.0 -1.0
 -1.0 1.0
4
 1.0 -1.0
 -1.0 1.0
4
 1.0 -1.0
 -1.0 1.0
4
 1.0 -1.0
 -1.0 1.0
4
 1.0 -1.0
 -1.0 1.0
4
 1.0 -1.0
 -1.0 1.0
4
 1.0 -1.0
 -1.0 1.0
4
 1.0 -1.0
 -1.0 1.0
4
 1.0 -1.0
 -1.0 1.0
4
 1.0 -1.0
 -1.0 1.0
4
 1.0 -1.0
 -1.0 1.0
4
 1.0 -1.0
 -1.0 1.0
4
 1.0 -1.0
 -1.0 1.0
4
 1.0 -1.0
 -1.0 1.0
4
 1.0 -1.0
 -1.0 1.0
4
 1.0 -1.0
 -1.0 1.0
4
 1.0 -1.0
 -1.0 1.0
4
 1.0 -1.0
 -1.0 1.0
4
 1.0 -1.0
 -1.0 1.0
4
 1.0 -1.0
 -1.0 1.0
4
 1.0 -1.0
 -1.0 1.0
4
 1.0 -1.0
 -1.0 1.0
4
 1.0 -1.0
 -1.0 1.0
4
 1.0 -1.0
 -1.0 1.0
4
 1.0 -1.0
 -1.0 1.0
4
 1.0 -1.0
 -1.0 1.0
4
 1.0 -1.0
 -1.0 1.0
4
 1.0 -1.0
 -1.0 1.0
4
 1.0 -1.0
 -1.0 1.0
4
 1.0 -1.0
 -1.0 1.0
4
 1.0 -1.0
 -1.0 1.0
4
 1.0 -1.0
 -1.0 1.0
4
 1.0 -1.0
 -1.0 1.0
4
 1.0 -1.0
 -1.0 1.0
4
 1.0 -1.0
 -1.0 1.0
4
 1.0 -1.0
 -1.0 1.0
4
 1.0 -1.0
 -1.0 1.0
4
 1.0 -1.0
 -1.0 1.0
4
 1.0 -1.0
 -1.0 1.0
4
 1.0 -1.0
 -1.0 1.0
4
 1.0 -1.0
 -1.0 1.0
4
 1.0 -1.0
 -1.0 1.0
4
 1.0 -1.0
 -1.0 1.0
4
 1.0 -1.0
 -1.0 1.0
4
 1.0 -1.0
 -1.0 1.0
4
 1.0 -1.0
 -1.0 1.0
4
 1.0 -1.0
 -1.0 1.0
4
 1.0 -1.0
 -1.0 1.0
4
 1.0 -1.0
 -1.0 1.0
4
 1.0 -1.0
 -1.0 1.0
4
 1.0 -1.0
 -1.0 1.0
4
 1.0 -1.0
 -1.0 1.0
4
 1.0 -1.0
 -1.0 1.0
4
 1.0 -1.0
 -1.0 1.0
4
 1.0 -1.0
 -1.0 1.0
4
 1.0 -1.0
 -1.0 1.0
4
 1.0 -1.0
 -1.0 1.0
4
 1.0 -1.0
 -1.0 1.0
4
 1.0 -1.0
 -1.0 1.0
4
 1.0 -1.0
 -1.0 1.0
4
 1.0 -1.0
 -1.0 1.0
4
 1.0 -1.0
 -1.0 1.0
4
 1.0 -1.0
 -1.0 1.0
4
 1.0 -1.0
 -1.0 1.0
4
 1.0 -1.0
 -1.0 1.0
4
 1.0 -1.0
 -1.0 1.0
4
 1.0 -1.0
 -1.0 1.0
4
 1.0 -1.0
 -1.0 1.0
4
 1.0 -1.0
 -1.0 1.0
4
 1.0 -1.0
 -1.0 1.0
4
 1.0 -1.0
 -1.0 1.0
